(set-info :smt-lib-version 2.6)
(set-logic QF_SLIA)
(set-info :source |
Generated by: Denghang Hu,
Generated on: 20230329,
Application: Evaluate string solvers
Description: The instance consists of:
(1) a regular membership predicate from the real world
(2) a regular membership predicate to sanitize danger letters in javascript such as <,>,&,",'
(3) a lower bound for string length
Target solver: Ostrich, Z3str3, CVC5
|)
(set-info :license "https://creativecommons.org/licenses/by/4.0/")
(set-info :category "industrial")
(set-info :status unknown)
        ;test regex ^[^\W_](\s?\w?)*$|^[^\W_]{3,}(\s?\w?)*\*$|^[\*][^\W_]{3,}(\s?\w?)*$
(declare-const X String)
(assert (str.in_re X (re.union (re.union (re.++ (re.++ (str.to_re "") (re.++ (re.inter (re.diff re.allchar (re.inter (re.diff re.allchar (re.range "a" "z")) (re.inter (re.diff re.allchar (re.range "A" "Z")) (re.inter (re.diff re.allchar (re.range "0" "9")) (re.diff re.allchar (str.to_re "_")))))) (re.diff re.allchar (str.to_re "_"))) (re.* (re.++ (re.opt (re.union (str.to_re " ") (re.union (str.to_re "\u{0b}") (re.union (str.to_re "\u{0a}") (re.union (str.to_re "\u{0d}") (re.union (str.to_re "\u{09}") (str.to_re "\u{0c}"))))))) (re.opt (re.union (re.range "a" "z") (re.union (re.range "A" "Z") (re.union (re.range "0" "9") (str.to_re "_"))))))))) (str.to_re "")) (re.++ (re.++ (str.to_re "") (re.++ (re.++ (re.* (re.inter (re.diff re.allchar (re.inter (re.diff re.allchar (re.range "a" "z")) (re.inter (re.diff re.allchar (re.range "A" "Z")) (re.inter (re.diff re.allchar (re.range "0" "9")) (re.diff re.allchar (str.to_re "_")))))) (re.diff re.allchar (str.to_re "_")))) ((_ re.loop 3 3) (re.inter (re.diff re.allchar (re.inter (re.diff re.allchar (re.range "a" "z")) (re.inter (re.diff re.allchar (re.range "A" "Z")) (re.inter (re.diff re.allchar (re.range "0" "9")) (re.diff re.allchar (str.to_re "_")))))) (re.diff re.allchar (str.to_re "_"))))) (re.++ (re.* (re.++ (re.opt (re.union (str.to_re " ") (re.union (str.to_re "\u{0b}") (re.union (str.to_re "\u{0a}") (re.union (str.to_re "\u{0d}") (re.union (str.to_re "\u{09}") (str.to_re "\u{0c}"))))))) (re.opt (re.union (re.range "a" "z") (re.union (re.range "A" "Z") (re.union (re.range "0" "9") (str.to_re "_"))))))) (str.to_re "*")))) (str.to_re ""))) (re.++ (re.++ (str.to_re "") (re.++ (str.to_re "*") (re.++ (re.++ (re.* (re.inter (re.diff re.allchar (re.inter (re.diff re.allchar (re.range "a" "z")) (re.inter (re.diff re.allchar (re.range "A" "Z")) (re.inter (re.diff re.allchar (re.range "0" "9")) (re.diff re.allchar (str.to_re "_")))))) (re.diff re.allchar (str.to_re "_")))) ((_ re.loop 3 3) (re.inter (re.diff re.allchar (re.inter (re.diff re.allchar (re.range "a" "z")) (re.inter (re.diff re.allchar (re.range "A" "Z")) (re.inter (re.diff re.allchar (re.range "0" "9")) (re.diff re.allchar (str.to_re "_")))))) (re.diff re.allchar (str.to_re "_"))))) (re.* (re.++ (re.opt (re.union (str.to_re " ") (re.union (str.to_re "\u{0b}") (re.union (str.to_re "\u{0a}") (re.union (str.to_re "\u{0d}") (re.union (str.to_re "\u{09}") (str.to_re "\u{0c}"))))))) (re.opt (re.union (re.range "a" "z") (re.union (re.range "A" "Z") (re.union (re.range "0" "9") (str.to_re "_")))))))))) (str.to_re "")))))
; sanitize danger characters:  < > ' " &
(assert (not (str.in_re X (re.++ re.all (re.union (str.to_re "\u{3c}") (str.to_re "\u{3e}") (str.to_re "\u{27}") (str.to_re "\u{22}") (str.to_re "\u{26}")) re.all))))
(assert (< 20 (str.len X)))
(check-sat)
(get-model)(exit)